\* row_knapsack_problem *\
Minimize
knapsack: 4 row_1 + 31 row_10 + 32 row_12 + 4 row_13 + 33 row_14 + 32 row_16
 + 34 row_17 + 34 row_18 + 33 row_19 + 4 row_21 + 31 row_22 + 4 row_23
 + 31 row_24 + 34 row_25 + 32 row_27 + 3 row_28 + 33 row_29 + 37 row_3
 + 36 row_30 + 4 row_31 + 31 row_32 + 32 row_34 + 32 row_35 + 33 row_37
 + 5 row_38 + 33 row_39 + 3 row_4 + 34 row_40 + 33 row_41 + 33 row_42
 + 2 row_43 + 31 row_44 + 32 row_47 + 3 row_48 + 2 row_49 + 4 row_5 + 31 row_6
 + 2 row_8 + 5 row_9
Subject To
sensitivity: 41 row_1 + 14 row_10 + 13 row_12 + 41 row_13 + 12 row_14
 + 13 row_16 + 11 row_17 + 11 row_18 + 12 row_19 + 41 row_21 + 14 row_22
 + 41 row_23 + 14 row_24 + 11 row_25 + 13 row_27 + 42 row_28 + 12 row_29
 + 8 row_3 + 9 row_30 + 41 row_31 + 14 row_32 + 13 row_34 + 13 row_35
 + 12 row_37 + 40 row_38 + 12 row_39 + 42 row_4 + 11 row_40 + 12 row_41
 + 12 row_42 + 43 row_43 + 14 row_44 + 13 row_47 + 42 row_48 + 43 row_49
 + 41 row_5 + 14 row_6 + 43 row_8 + 40 row_9 >= 160.8
Bounds
 row_1 <= 1
 row_10 <= 1
 row_12 <= 1
 row_13 <= 1
 row_14 <= 1
 row_16 <= 1
 row_17 <= 1
 row_18 <= 1
 row_19 <= 1
 row_21 <= 1
 row_22 <= 1
 row_23 <= 1
 row_24 <= 1
 row_25 <= 1
 row_27 <= 1
 row_28 <= 1
 row_29 <= 1
 row_3 <= 1
 row_30 <= 1
 row_31 <= 1
 row_32 <= 1
 row_34 <= 1
 row_35 <= 1
 row_37 <= 1
 row_38 <= 1
 row_39 <= 1
 row_4 <= 1
 row_40 <= 1
 row_41 <= 1
 row_42 <= 1
 row_43 <= 1
 row_44 <= 1
 row_47 <= 1
 row_48 <= 1
 row_49 <= 1
 row_5 <= 1
 row_6 <= 1
 row_8 <= 1
 row_9 <= 1
End
